Gurobi Optimizer version 9.1.0 build v9.1.0rc0 (linux64)
Thread count: 8 physical cores, 16 logical processors, using up to 16 threads
Optimize a model with 21858 rows, 20160 columns and 110380 nonzeros
Model fingerprint: 0xf5bef9a2
Variable types: 0 continuous, 20160 integer (20160 binary)
Coefficient statistics:
  Matrix range     [1e+00, 1e+00]
  Objective range  [1e+01, 3e+04]
  Bounds range     [1e+00, 1e+00]
  RHS range        [1e+00, 2e+02]
Presolve removed 20 rows and 20 columns
Presolve time: 0.25s
Presolved: 21838 rows, 20140 columns, 110340 nonzeros
Variable types: 0 continuous, 20140 integer (20140 binary)
Found heuristic solution: objective 127801.00000

Concurrent LP optimizer: primal simplex, dual simplex, and barrier
Showing barrier log only...

Root barrier log...

Ordering time: 0.08s

Barrier statistics:
 Dense cols : 80
 AA' NZ     : 9.484e+04
 Factor NZ  : 4.102e+05 (roughly 20 MBytes of memory)
 Factor Ops : 1.415e+07 (less than 1 second per iteration)
 Threads    : 6

                  Objective                Residual
Iter       Primal          Dual         Primal    Dual     Compl     Time
   0   1.04317351e+07 -4.50165152e+04  8.07e+01 0.00e+00  1.63e+03     1s
   1   1.75984408e+05 -1.99895701e+06  3.12e-01 1.49e+03  4.00e+01     1s
   2   1.41747509e+05  4.85453131e+04  3.47e-02 6.04e+01  1.48e+00     1s
   3   1.29580742e+05  9.22029890e+04  1.13e-02 2.07e+01  5.89e-01     1s
   4   1.20025162e+05  1.02434492e+05  3.62e-03 8.31e+00  2.79e-01     1s
   5   1.16231224e+05  1.06175918e+05  2.12e-03 4.89e+00  1.59e-01     1s
   6   1.14568037e+05  1.07138396e+05  1.54e-03 3.56e+00  1.18e-01     1s
   7   1.13348772e+05  1.07972308e+05  1.13e-03 2.46e+00  8.51e-02     1s
   8   1.12012869e+05  1.08620689e+05  6.99e-04 1.57e+00  5.37e-02     1s
   9   1.11538161e+05  1.08837803e+05  5.52e-04 1.24e+00  4.28e-02     1s
  10   1.10954689e+05  1.09056021e+05  3.76e-04 9.44e-01  3.01e-02     1s
  11   1.10602709e+05  1.09240757e+05  2.71e-04 6.56e-01  2.16e-02     1s
  12   1.10313332e+05  1.09380969e+05  1.89e-04 4.18e-01  1.48e-02     1s
  13   1.10136363e+05  1.09435088e+05  1.38e-04 3.34e-01  1.11e-02     1s
  14   1.10081665e+05  1.09460518e+05  1.23e-04 2.90e-01  9.84e-03     1s
  15   1.09979152e+05  1.09530112e+05  9.57e-05 1.64e-01  7.10e-03     1s
  16   1.09903283e+05  1.09555676e+05  7.53e-05 1.13e-01  5.50e-03     1s
  17   1.09794234e+05  1.09576486e+05  4.57e-05 7.41e-02  3.45e-03     1s
  18   1.09752577e+05  1.09590654e+05  3.46e-05 4.91e-02  2.56e-03     1s
  19   1.09706632e+05  1.09599773e+05  2.25e-05 3.25e-02  1.69e-03     1s
  20   1.09687552e+05  1.09604419e+05  1.75e-05 2.40e-02  1.32e-03     1s
  21   1.09664071e+05  1.09607067e+05  1.15e-05 1.89e-02  9.03e-04     1s
  22   1.09649709e+05  1.09611991e+05  7.91e-06 9.35e-03  5.97e-04     1s
  23   1.09641678e+05  1.09612517e+05  5.90e-06 8.30e-03  4.62e-04     1s
  24   1.09637928e+05  1.09614533e+05  4.92e-06 5.13e-03  3.70e-04     1s
  25   1.09636151e+05  1.09615464e+05  4.52e-06 3.15e-03  3.27e-04     1s
  26   1.09624585e+05  1.09616493e+05  1.66e-06 1.20e-03  1.28e-04     2s
  27   1.09622640e+05  1.09617037e+05  1.19e-06 5.83e-04  8.86e-05     2s
  28   1.09621660e+05  1.09617108e+05  9.58e-07 5.11e-04  7.20e-05     2s
  29   1.09618541e+05  1.09617192e+05  2.25e-07 3.76e-04  2.14e-05     2s
  30   1.09617631e+05  1.09617516e+05  1.80e-08 1.92e-05  1.84e-06     2s
  31   1.09617540e+05  1.09617540e+05  8.88e-11 8.16e-08  8.30e-09     2s

Barrier solved model in 31 iterations and 1.60 seconds
Optimal objective 1.09617540e+05


Solved with barrier

Root relaxation: objective 1.096175e+05, 2634 iterations, 1.51 seconds

    Nodes    |    Current Node    |     Objective Bounds      |     Work
 Expl Unexpl |  Obj  Depth IntInf | Incumbent    BestBd   Gap | It/Node Time

     0     0 109617.540    0 2697 127801.000 109617.540  14.2%     -    2s
H    0     0                    112629.00000 109617.540  2.67%     -    3s
H    0     0                    112138.00000 109617.540  2.25%     -    3s
H    0     0                    112021.00000 109617.540  2.15%     -    3s
H    0     0                    111308.00000 109617.540  1.52%     -    4s
H    0     0                    111255.00000 109617.540  1.47%     -    4s
H    0     0                    111254.00000 109617.540  1.47%     -    4s
     0     0 109629.084    0 2711 111254.000 109629.084  1.46%     -    4s
     0     0 109629.549    0 2708 111254.000 109629.549  1.46%     -    5s
     0     0 109629.549    0 2966 111254.000 109629.549  1.46%     -    5s
     0     0 109636.604    0 2968 111254.000 109636.604  1.45%     -    6s
H    0     0                    111252.00000 109636.604  1.45%     -    7s
     0     0 109636.703    0 2967 111252.000 109636.703  1.45%     -    7s
     0     0 109636.739    0 2967 111252.000 109636.739  1.45%     -    7s
     0     0 109902.000    0 2978 111252.000 109902.000  1.21%     -    8s
     0     0 109902.000    0 2981 111252.000 109902.000  1.21%     -   10s
     0     0 109903.400    0 2983 111252.000 109903.400  1.21%     -   11s
H    0     0                    111251.00000 109903.400  1.21%     -   11s
     0     0 109903.400    0 2980 111251.000 109903.400  1.21%     -   11s
     0     0 109957.083    0 2987 111251.000 109957.083  1.16%     -   13s
     0     0 110052.379    0 2987 111251.000 110052.379  1.08%     -   13s
     0     0 110052.379    0 2979 111251.000 110052.379  1.08%     -   13s
     0     0 110052.379    0 2980 111251.000 110052.379  1.08%     -   13s
     0     0 110052.379    0 2995 111251.000 110052.379  1.08%     -   14s
     0     0 110052.379    0 2995 111251.000 110052.379  1.08%     -   15s
H    0     0                    111069.00000 110052.379  0.92%     -   18s
H    0     0                    111004.00000 110052.379  0.86%     -   18s
     0     2 110052.379    0 2995 111004.000 110052.379  0.86%     -   18s
     1     4 110052.379    1 2827 111004.000 110052.379  0.86%  5187   21s
     7    12 110185.192    3 2956 111004.000 110081.662  0.83%  2226   25s
*   22    18               4    110871.00000 110179.778  0.62%  1527   27s
    39    16 110656.833    7 2606 110871.000 110179.778  0.62%  1121   30s
*   41    16               7    110774.00000 110179.778  0.54%  1073   30s
H   55    17                    110554.00000 110179.778  0.34%   830   30s
H   59     8                    110531.00000 110291.500  0.22%   784   31s
   229    81 110453.000   25 1518 110531.000 110380.250  0.14%   264   35s
   689   197     cutoff   41      110531.000 110432.857  0.09%   114   40s
  1507   261 110505.500   40 1519 110531.000 110487.000  0.04%  71.3   45s

Cutting planes:
  Gomory: 1
  Cover: 3
  Zero half: 106

Explored 2303 nodes (129738 simplex iterations) in 48.78 seconds
Thread count was 16 (of 16 available processors)

Solution count 10: 110531 110554 110774 ... 111255

Optimal solution found (tolerance 1.00e-04)
Best objective 1.105310000000e+05, best bound 1.105310000000e+05, gap 0.0000%

User-callback calls 12342, time in user-callback 0.13 sec
['/opt/local/stow/gurobi910/linux64/lib/libgurobi91.so']
Optimal Result: runtime=48.77sec; objective=110531
Solution written to /autofs/unityaccount/cremi/mdeboute/Bureau/multi-period-flp/solution/instMulti_I20_J250_T4_0_result.txt
